nTasks=4;
nThreads=10;
nCPUs=3;
nCores=8;
rh=[304.041858888 380.299819383 839.479848407 241.137436256 718.523552231 430.557616129 438.016733967 403.703902178 560.777300666 624.533916935];
rc=[789.032015291 485.72685884 426.49449514];
CK=[
	[1 1 1 1 0 0 0 0]
	[0 0 0 0 1 0 0 0]
	[0 0 0 0 0 1 1 1]
];
TH=[
	[1 1 0 0 0 0 0 0 0 0]
	[0 0 1 1 1 0 0 0 0 0]
	[0 0 0 0 0 1 1 1 0 0]
	[0 0 0 0 0 0 0 0 1 1]
];
